25 4050 100000 0 0 5 20
12000 16000 0
 9795	 21510	    549
 7758	 10895	    558
 12927	 2464	    851
 23286	 5538	    388
 7416	 15826	    194
 21524	  24879     483
 22337	  17915     389
 7642	  9722	    435
 3707	  20036     452
 15492	  2721	    343
 12430	  10638     444
 13595	  1918	    350
 4290	  2721	    307
 18684	  5268	    810
 8686	  9546	    1002
 23140	  10989     476
 5263	  14289     674
 19557	  17564     691
 23281	  29684     675
 374	  22683     410
 18804	  9082	    351
 5444	  25004     786
 20390	  25745     59
 4310	  21692     362
 8526	  2495	    550
 
